(set-logic QF_S)
(declare-fun var0 () String)
(declare-fun var1 () String)
(declare-fun var2 () String)
(declare-fun var3 () String)
(declare-fun var4 () String)
(declare-fun var5 () String)
(declare-fun var6 () String)
(declare-fun var7 () String)
(declare-fun var8 () String)
(declare-fun var9 () String)
(declare-fun var10 () String)
(declare-fun var11 () String)
(declare-fun var12 () String)
(declare-fun var13 () String)
(declare-fun var14 () String)
(declare-fun var15 () String)
(declare-fun var16 () String)
(declare-fun var17 () String)
(declare-fun var18 () String)
(declare-fun var19 () String)
(declare-fun var20 () String)
(declare-fun var21 () String)
(declare-fun var22 () String)
(declare-fun var23 () String)
(declare-fun var24 () String)
(declare-fun var25 () String)
(declare-fun var26 () String)
(declare-fun var27 () String)
(declare-fun var28 () String)
(declare-fun var29 () String)
(declare-fun var30 () String)
(declare-fun var31 () String)
(declare-fun var32 () String)
(declare-fun var33 () String)
(declare-fun var34 () String)
(declare-fun var35 () String)
(declare-fun var36 () String)
(declare-fun var37 () String)
(declare-fun var38 () String)
(declare-fun var39 () String)
(declare-fun var40 () String)
(declare-fun var41 () String)
(declare-fun var42 () String)
(declare-fun var43 () String)
(declare-fun var44 () String)
(declare-fun var45 () String)
(declare-fun var46 () String)
(declare-fun var47 () String)
(declare-fun var48 () String)
(declare-fun var49 () String)
(declare-fun var50 () String)
(declare-fun var51 () String)
(declare-fun var52 () String)
(declare-fun var53 () String)
(declare-fun var54 () String)
(declare-fun var55 () String)
(declare-fun var56 () String)
(declare-fun var57 () String)
(declare-fun var58 () String)
(declare-fun var59 () String)
(assert (= 56 (Length var0)))
(assert (= 25 (Length var1)))
(assert (= 44 (Length var2)))
(assert (= 77 (Length var3)))
(assert (= 40 (Length var4)))
(assert (= 43 (Length var5)))
(assert (= 91 (Length var6)))
(assert (= 89 (Length var7)))
(assert (= 77 (Length var8)))
(assert (= 79 (Length var9)))
(assert (= 3 (Length var10)))
(assert (= 54 (Length var11)))
(assert (= 96 (Length var12)))
(assert (= 82 (Length var13)))
(assert (= 93 (Length var14)))
(assert (= 13 (Length var15)))
(assert (= 40 (Length var16)))
(assert (= 49 (Length var17)))
(assert (= 54 (Length var18)))
(assert (= 47 (Length var19)))
(assert (= 30 (Length var20)))
(assert (= 16 (Length var21)))
(assert (= 47 (Length var22)))
(assert (= 48 (Length var23)))
(assert (= 49 (Length var24)))
(assert (= 90 (Length var25)))
(assert (= 71 (Length var26)))
(assert (= 36 (Length var27)))
(assert (= 90 (Length var28)))
(assert (= 88 (Length var29)))
(assert (= 85 (Length var30)))
(assert (= 24 (Length var31)))
(assert (= 26 (Length var32)))
(assert (= 8 (Length var33)))
(assert (= 48 (Length var34)))
(assert (= 26 (Length var35)))
(assert (= 23 (Length var36)))
(assert (= 24 (Length var37)))
(assert (= 6 (Length var38)))
(assert (= 43 (Length var39)))
(assert (= 48 (Length var40)))
(assert (= 83 (Length var41)))
(assert (= 8 (Length var42)))
(assert (= 13 (Length var43)))
(assert (= 100 (Length var44)))
(assert (= 77 (Length var45)))
(assert (= 70 (Length var46)))
(assert (= 79 (Length var47)))
(assert (= 5 (Length var48)))
(assert (= 46 (Length var49)))
(assert (= 19 (Length var50)))
(assert (= 21 (Length var51)))
(assert (= 45 (Length var52)))
(assert (= 59 (Length var53)))
(assert (= 53 (Length var54)))
(assert (= 43 (Length var55)))
(assert (= 38 (Length var56)))
(assert (= 98 (Length var57)))
(assert (= 37 (Length var58)))
(assert (= 41 (Length var59)))
(assert (= 115 (Length (Concat var27 var47))))
(assert (= 93 (Length (Concat var10 var28))))
(assert (= 90 (Length (Concat var43 var8))))
(assert (= 96 (Length (Concat var42 var29))))
(assert (= 124 (Length (Concat var54 var26))))
(assert (= 96 (Length (Concat var34 var40))))
(check-sat)